6 4
3  3  2  12  1  13  3  14  3  3  21  4  19  2  18  3  4  11  3  12  1  12
3  3  2  12  3  14  1  13  3  3  21  2  20  4  19  3  4  11  1  10  3  12
3  3  2  12  4  13  1  10  3  3  21  1  22  4  22  3  4  11  3  9  2  12
3  3  2  12  3  11  4  13  3  3  21  1  23  2  22  3  4  11  2  10  3  9
4  3  1  10  4  13  3  11  3  2  14  3  13  4  13  3  3  18  1  17  2  16  3  4  9  2  8  1  11
4  3  1  10  2  12  4  9  3  2  14  4  13  3  15  3  3  18  1  16  2  17  3  4  9  3  10  1  10
   

